data/processed_heuristic-threshold/instances/1/6/ds_617_courier_2208/pairwise.tsp
NAME: ds_617_courier_2208
TYPE: TSP
COMMENT: nil
DIMENSION: 7
EDGE_WEIGHT_TYPE: EXPLICIT
EDGE_WEIGHT_FORMAT: FULL_MATRIX
EDGE_WEIGHT_SECTION
9999 1754 2162 1816 1512 1754 2155 
1754 9999 418 237 242 99 463 
2162 418 9999 488 658 453 354 
1816 237 488 9999 359 142 340 
1512 242 658 359 9999 253 671 
1754 99 453 142 253 9999 419 
2155 463 354 340 671 419 9999 
