data/processed_heuristic-threshold/instances/1/6/ds_617_courier_2208/pairwise.sol
7
0 4 1 2 6 3 5 
